language ESSENCE' 1.0

letting n_courses be 124
letting n_periods be 30
letting prerequisite_RelationAsSet_Explicit_1 be
        [1, 1, 1, 2, 2, 2, 2, 3, 3, 3, 3, 3, 4, 4, 4, 5, 5, 5, 5, 6, 6, 6, 6, 7, 7, 7, 7, 8, 8, 8, 8, 8, 9, 9, 9, 9, 9,
         9, 10, 10, 10, 10, 11, 11, 12, 12, 12, 12, 12, 12, 13, 13, 13, 13, 14, 14, 15, 15, 15, 15, 15, 15, 15, 16, 16,
         16, 16, 16, 16, 16, 17, 17, 18, 18, 18, 18, 18, 18, 19, 19, 19, 19, 19, 20, 21, 21, 21, 21, 22, 22, 23, 23, 24,
         24, 24, 25, 25, 25, 26, 26, 27, 27, 27, 28, 28, 28, 28, 29, 29, 30, 31, 31, 32, 32, 32, 32, 32, 33, 33, 33, 33,
         33, 33, 34, 34, 34, 34, 35, 35, 35, 35, 35, 36, 36, 36, 36, 37, 37, 38, 38, 38, 38, 39, 39, 41, 41, 42, 42, 42,
         42, 43, 43, 44, 44, 44, 44, 45, 45, 45, 46, 46, 46, 46, 47, 48, 48, 48, 49, 49, 49, 50, 50, 50, 51, 51, 51, 51,
         51, 52, 52, 53, 54, 55, 55, 57, 57, 59, 59, 60, 60, 61, 61, 61, 61, 62, 62, 63, 65, 66, 66, 67, 67, 67, 68, 68,
         68, 69, 69, 69, 70, 70, 71, 71, 72, 72, 72, 73, 74, 74, 74, 75, 75, 77, 77, 77, 79, 79, 79, 79, 80, 81, 81, 81,
         81, 82, 82, 82, 83, 83, 83, 84, 84, 84, 85, 85, 86, 87, 88, 88, 89, 90, 90, 90, 90, 91, 91, 91, 91, 91, 91, 92,
         93, 93;
             int(1..263)]
letting prerequisite_RelationAsSet_Explicit_2 be
        [59, 61, 80, 51, 63, 81, 85, 47, 48, 49, 83, 84, 50, 61, 65, 44, 82, 83, 87, 46, 54, 58, 81, 49, 56, 62, 82, 44,
         49, 50, 51, 62, 53, 61, 74, 77, 79, 92, 39, 48, 65, 76, 43, 92, 40, 43, 59, 79, 82, 91, 40, 47, 58, 88, 56, 92,
         41, 55, 64, 66, 84, 87, 91, 47, 61, 62, 65, 68, 70, 71, 75, 79, 40, 42, 45, 63, 64, 67, 63, 66, 75, 82, 90, 70,
         45, 64, 81, 83, 49, 92, 41, 90, 50, 52, 69, 52, 79, 90, 68, 93, 57, 78, 86, 48, 53, 87, 89, 44, 71, 71, 74, 86,
         39, 49, 77, 85, 86, 42, 67, 71, 76, 78, 80, 45, 60, 73, 91, 42, 46, 72, 80, 93, 48, 53, 56, 72, 48, 49, 46, 59,
         69, 70, 96, 111, 105, 119, 105, 109, 110, 119, 108, 115, 94, 102, 109, 118, 104, 108, 123, 106, 115, 120, 121,
         95, 107, 110, 117, 109, 112, 117, 101, 106, 119, 99, 101, 111, 121, 124, 101, 111, 95, 119, 106, 122, 102, 113,
         103, 124, 112, 118, 98, 111, 122, 124, 94, 104, 116, 101, 100, 107, 98, 109, 116, 94, 99, 116, 109, 117, 122,
         99, 113, 103, 106, 112, 119, 120, 121, 98, 114, 119, 97, 123, 108, 114, 119, 108, 109, 112, 121, 110, 99, 100,
         111, 117, 97, 98, 101, 102, 116, 117, 96, 113, 121, 96, 115, 100, 119, 120, 121, 121, 94, 107, 113, 123, 94,
         97, 99, 104, 109, 123, 122, 104, 118;
             int(1..263)]
letting course_load_Function1D be
        [5, 7, 6, 6, 5, 8, 5, 5, 4, 4, 3, 6, 3, 3, 3, 6, 7, 5, 6, 3, 3, 4, 5, 8, 6, 8, 6, 5, 5, 7, 6, 4, 5, 4, 4, 8, 6,
         5, 6, 7, 8, 4, 6, 8, 7, 4, 6, 5, 4, 8, 7, 4, 3, 6, 4, 3, 4, 5, 7, 7, 5, 4, 4, 7, 6, 3, 3, 4, 7, 3, 7, 6, 6, 3,
         5, 5, 4, 4, 4, 6, 7, 7, 6, 5, 7, 7, 8, 5, 5, 7, 3, 6, 3, 6, 6, 6, 3, 5, 6, 6, 7, 5, 6, 3, 6, 3, 3, 5, 8, 7, 8,
         3, 5, 7, 3, 4, 7, 3, 6, 6, 5, 3, 4, 8;
             int(1..124)]
letting load_per_period_ub be 47
letting load_per_period_lb be 8
letting courses_per_period_ub be 9
letting courses_per_period_lb be 4
letting fin1 be 263
letting fin2 be 124
letting fin3 be 8
